c This is a random SAT instance with 10 variables and 20 clauses
p cnf 10 20
7 10 1 2 8 -8 0
-6 -10 9 4 -7 -5 -4 -3 -9 0
-4 5 0
6 2 -9 5 -5 8 0
0
6 10 1 3 0
-4 8 1 -6 9 -5 -7 0
10 0
-9 0
-3 -7 4 3 -8 -10 -1 6 7 0
-10 9 7 3 -4 -8 -5 0
8 -2 1 9 0
10 0
6 1 -9 3 -8 5 4 -1 -7 9 0
10 -9 -8 6 0
2 7 1 -6 9 -8 -3 6 0
-2 2 -3 -9 0
-3 -4 -5 10 7 3 8 0
9 -1 -10 8 -7 -2 -5 0
-10 -8 -2 -5 1 -4 -6 6 9 0